NAME : morphed20-2-6
COMMENT : Generated using the function morphInstances from the R-package netgen (Bossek,2015) - Number of clusters: 2 Alpha: 0.5
TYPE : TSP
DIMENSION : 20
EDGE_WEIGHT_TYPE : EUC_2D
NODE_COORD_SECTION
1 76.774015036 95.8147235087
2 94.1451845274 83.1860804135
3 31.6752386366 15.3180543975
4 37.3990333582 23.846113672
5 86.355750015 82.940505107
6 98.6105861283 62.7725616017
7 97.4022379332 66.7871588673
8 81.0813068388 90.6397755506
9 49.1841429682 26.5743903319
10 20.4956897392 36.5513078284
11 59.4271337557 40.3091667204
12 76.4941692033 19.4407873693
13 53.5581751902 97.1087045601
14 31.6386639538 58.1286336405
15 57.1058670526 17.6142468309
16 56.9446622795 93.8202370379
17 48.4379154903 34.062206337
18 55.8067326725 10.5329917277
19 56.321542531 99.303167063
20 74.0463936262 79.6513347021
EOF
